32800 41356 
32424 41567 
31017 41925 
31360 41882 
32066 41656 
33125 41231 
32943 41271 
32655 41384 
30240 41957 
31532 41859 
34027 40586 
33768 40755 
33653 40853 
31932 41734 
31626 41810 
34319 40371 
31268 41899 
31809 41773 
34962 39895 
34477 40284 
35654 39344 
35169 39733 
